proyfinal/src/viki/013/experimentInOfficeAgust.take6.output/7141e3e6-9005-47ef-8346-5794bcbc0ba6.als.dat
{'cnf.clauses': '118081',
 'cnf.totvars': '69608',
 'conflict literals': '4',
 'conflicts': '4',
 'decisions': '3316',
 'memused.mb': '15.99',
 'outcome': 'UNSAT',
 'propagations': '25360',
 'restarts': '1',
 'solver.msecs': 35,
 'task.msecs': 102}
