proyfinal/src/viki/013/experimentInOfficeAgust.take6.output/7141e3e6-9005-47ef-8346-5794bcbc0ba6.als.out
Reading from standard input... Use '--help' for help.
============================[ Problem Statistics ]=============================
|                                                                             |
|  Number of variables:         69608                                         |
|  Number of clauses:          118081                                         |
|  Parse time:                   0.03 s                                       |
|                                                                             |
============================[ Search Statistics ]==============================
| Conflicts |          ORIGINAL         |          LEARNT          | Progress |
|           |    Vars  Clauses Literals |    Limit  Clauses Lit/Cl |          |
===============================================================================
===============================================================================
restarts              : 1
conflicts             : 4              (113 /sec)
decisions             : 3316           (0.00 % random) (93480 /sec)
propagations          : 25360          (714910 /sec)
conflict literals     : 4              (0.00 % deleted)
Memory used           : 15.99 MB
CPU time              : 0.035473 s

UNSATISFIABLE
